53 59 48 54 49 56 51 43 49 55 41 49 45 53 61 56 45 56 57 48 60 50 54 48 53 53 44 52 42 48 56 61 44 50 58 58 51 51 46 56 43 51 54 51 49 55 50 51 42 43 47 46 51 49 55 53 52 57 42 50 46 43 47 45 56 61 43 62 45 51 45 53 56 51 57 47 50 45 50 52 46 47 54 41 52 46 50 52 45 56 56 56 48 54 49 53 44 58 47 56 